&control
    calculation = 'scf',
    restart_mode='from_scratch',
    prefix='si',
    pseudo_dir = './',
    outdir='./outdir'
 /
&system
    ibrav= 8, celldm(1) =29.2337482, celldm(2)=0.5, celldm(3) = 1.5, nat=56, ntyp=2,
    ecutwfc=25,
    ecutrho=100,
    occupations='smearing', smearing='gaussian', degauss=0.01
 /
 &electrons
    electron_maxstep=120
    mixing_beta = 0.7
    conv_thr =  1.0d-7
 /
ATOMIC_SPECIES
 Si 28.0855   Si.pbe-n-rrkjus_psl.1.0.0.UPF
 H  1.00784   H.pbe-rrkjus_psl.1.0.0.UPF 

ATOMIC_POSITIONS (alat)
H        0.000000000  -0.067550000  -0.067550000    0   0   0
H        0.000000000   0.067550000  -0.067550000    0   0   0
H        0.250000000  -0.067550000  -0.067550000    0   0   0
H        0.250000000   0.067550000  -0.067550000    0   0   0
H        0.250000000   0.182450000  -0.067550000    0   0   0
H        0.250000000   0.317550000  -0.067550000    0   0   0
H        0.500000000   0.182450000  -0.067550000    0   0   0
H        0.500000000   0.317550000  -0.067550000    0   0   0
H        0.750000000   0.182450000  -0.067550000    0   0   0
H        0.750000000   0.317550000  -0.067550000    0   0   0
H        0.000000000   0.182450000  -0.067550000    0   0   0
H        0.000000000   0.317550000  -0.067550000    0   0   0
H        0.500000000  -0.067550000  -0.067550000    0   0   0
H        0.500000000   0.067550000  -0.067550000    0   0   0
H        0.750000000  -0.067550000  -0.067550000    0   0   0
H        0.750000000   0.067550000  -0.067550000    0   0   0
Si       0.000000000   0.000000000   0.000000000    0   0   0
Si       0.250000000   0.000000000   0.000000000    0   0   0
Si       0.000000000   0.250000000   0.000000000    0   0   0
Si       0.250000000   0.250000000   0.000000000    0   0   0
Si       0.500000000   0.000000000   0.000000000    0   0   0
Si       0.750000000   0.000000000   0.000000000    0   0   0
Si       0.500000000   0.250000000   0.000000000    0   0   0
Si       0.750000000   0.250000000   0.000000000    0   0   0
Si       0.125000000   0.000000000   0.088388348    0   0   0
Si       0.375000000   0.000000000   0.088388348    0   0   0
Si       0.125000000   0.250000000   0.088388348    0   0   0
Si       0.375000000   0.250000000   0.088388348    0   0   0
Si       0.625000000   0.000000000   0.088388348    0   0   0
Si       0.875000000   0.000000000   0.088388348    0   0   0
Si       0.625000000   0.250000000   0.088388348    0   0   0
Si       0.875000000   0.250000000   0.088388348    0   0   0
Si       0.624718968   0.374978970   0.172669261
Si       0.124567620   0.125001833   0.172595439
Si       0.374702957   0.125684283   0.181623202
Si       0.374702967   0.374315687   0.181623186
Si       0.874652824   0.124324536   0.181541252
Si       0.874652838   0.375675436   0.181541228
Si       0.124567649   0.374998162   0.172595398
Si       0.624718955   0.125021031   0.172669300
Si       0.744980054   0.382623254   0.268039671
Si       0.244831384   0.132622082   0.267972694
Si       0.504381536   0.132621600   0.268072888
Si       0.504381560   0.367378535   0.268072820
Si       0.004261050   0.117304613   0.267999396
Si       0.004261105   0.382695001   0.267999306
Si       0.244831409   0.367377644   0.267972680
Si       0.744980043   0.117376833   0.268039708
Si       0.040910762  -0.000000225   0.363460230
Si       0.185912290  -0.000000170   0.313377013
Si       0.063114865   0.249999788   0.313182025
Si       0.207947125   0.249999875   0.363230803
Si       0.563321624   0.000000070   0.313372269
Si       0.708292833   0.000000026   0.363344560
Si       0.541136095   0.250000096   0.363358221
Si       0.686098807   0.250000061   0.313462590		

K_POINTS automatic
1 2 1 0 0 0
